NAME: random_50_0
TYPE: TSP
COMMENT: random_50_0
DIMENSION: 50
EDGE_WEIGHT_TYPE: EUC_2D
NODE_COORD_SECTION
1 296 286
2 70 187
3 306 458
4 383 200
5 250 445
6 312 408
7 7 3
8 128 353
9 74 314
10 420 474
11 339 323
12 339 195
13 341 450
14 495 298
15 124 482
16 412 401
17 418 4
18 57 496
19 85 493
20 92 459
21 315 311
22 497 234
23 105 234
24 70 436
25 436 343
26 381 179
27 409 384
28 66 478
29 415 348
30 405 168
31 26 298
32 389 3
33 234 175
34 27 220
35 41 316
36 197 263
37 260 453
38 149 213
39 346 393
40 327 425
41 488 175
42 357 327
43 49 440
44 169 310
45 1 275
46 281 433
47 423 219
48 302 13
49 180 243
50 440 145
